c Sudoku solution
p cnf 729 0
128 0
147 0
166 0
214 0
226 0
237 0
269 0
384 0
154 0
434 0
459 0
467 0
517 0
531 0
588 0
594 0
629 0
579 0
682 0
762 0
822 0
412 0
448 0
839 0
857 0
943 0
749 0
955 0
996 0
972 0
989 0
938 0
911 0
927 0
724 0
874 0
964 0
321 0
618 0
636 0
644 0
486 0
376 0
397 0
319 0
787 0
677 0
199 0
292 0
278 0
132 0
798 0
868 0
358 0
342 0
552 0
546 0
245 0
251 0
363 0
283 0
113 0
335 0
733 0
841 0
756 0
771 0
715 0
816 0
653 0
661 0
565 0
523 0
425 0
695 0
175 0
181 0
473 0
491 0
885 0
893 0
